Gurobi 12.0.3:   lim:time = 54000
  mip:bestbound = 1
Set parameter LogToConsole to value 1
  tech:outlev = 1
Set parameter InfUnbdInfo to value 1
Gurobi Optimizer version 12.0.3 build v12.0.3rc0 (win64 - Windows 11.0 (26100.2))

CPU model: 12th Gen Intel(R) Core(TM) i7-12700, instruction set [SSE2|AVX|AVX2]
Thread count: 12 physical cores, 20 logical processors, using up to 20 threads

Non-default parameters:
TimeLimit  54000
InfUnbdInfo  1

Optimize a model with 173 rows, 229 columns and 1227 nonzeros
Model fingerprint: 0xd0d47cf0
Model has 1 quadratic objective term
Model has 4 quadratic constraints
Model has 18 simple general constraints
  18 AND
Variable types: 13 continuous, 216 integer (0 binary)
Coefficient statistics:
  Matrix range     [1e+00, 1e+05]
  QMatrix range    [9e+00, 2e+01]
  QLMatrix range   [7e+00, 2e+01]
  Objective range  [4e+01, 3e+02]
  QObjective range [2e+00, 2e+00]
  Bounds range     [1e+00, 1e+00]
  RHS range        [1e+00, 1e+05]
  QRHS range       [7e+01, 1e+02]
Presolve removed 38 rows and 36 columns
Presolve time: 0.01s
Presolved: 209 rows, 247 columns, 1483 nonzeros
Variable types: 10 continuous, 237 integer (237 binary)
Found heuristic solution: objective 612.2700000

Root relaxation: objective 2.359707e+02, 34 iterations, 0.00 seconds (0.00 work units)

    Nodes    |    Current Node    |     Objective Bounds      |     Work
 Expl Unexpl |  Obj  Depth IntInf | Incumbent    BestBd   Gap | It/Node Time

     0     0  235.97069    0   14  612.27000  235.97069  61.5%     -    0s
     0     0  333.45000    0   15  612.27000  333.45000  45.5%     -    0s
H    0     0                     578.2800000  333.45000  42.3%     -    0s
     0     0  333.45000    0   15  578.28000  333.45000  42.3%     -    0s
     0     0  342.31500    0   16  578.28000  342.31500  40.8%     -    0s
     0     0  412.65100    0   10  578.28000  412.65100  28.6%     -    0s
     0     0  413.82000    0   12  578.28000  413.82000  28.4%     -    0s
     0     0  413.82000    0   12  578.28000  413.82000  28.4%     -    0s
     0     0  413.82000    0   14  578.28000  413.82000  28.4%     -    0s
     0     0  413.82000    0   12  578.28000  413.82000  28.4%     -    0s
     0     0  413.82000    0   13  578.28000  413.82000  28.4%     -    0s
     0     0  413.82000    0   12  578.28000  413.82000  28.4%     -    0s
     0     0  413.82000    0   12  578.28000  413.82000  28.4%     -    0s
     0     0  413.82000    0   12  578.28000  413.82000  28.4%     -    0s
     0     2  413.82000    0   12  578.28000  413.82000  28.4%     -    0s

Cutting planes:
  Learned: 2
  Gomory: 3
  Cover: 1
  Implied bound: 6
  MIR: 3
  RLT: 3

Explored 154 nodes (1066 simplex iterations) in 0.15 seconds (0.06 work units)
Thread count was 20 (of 20 available processors)

Solution count 2: 578.28 612.27 

Optimal solution found (tolerance 1.00e-04)
Best objective 5.782800000000e+02, best bound 5.782800000000e+02, gap 0.0000%

AMPL MP initial flat model has 211 variables (0 integer, 198 binary);
Objectives: 1 quadratic; 
Constraints:  173 linear; 4 quadratic;
Logical expressions:  18 and;

AMPL MP final model has 229 variables (0 integer, 216 binary);
Objectives: 1 quadratic; 
Constraints:  173 linear; 4 quadratic;
Logical expressions:  18 and;


-----RESULTS INFO-----
running_time:  0.188
TC.best_bound:  578.28
TC:  578.28
MIP Gap (%):  0
=== Vehicle Routes ===
Vehicle 1: 0 → 9
Vehicle 1: 1 → 2
Vehicle 1: 2 → 11
Vehicle 1: 9 → 1
Vehicle 1: 11 → 0

=== Full Vehicle Routes ===
Vehicle 1: 0 → 9 → 1 → 2 → 11 → 0
Vehicle 2: 0 → 0
Arc used by MRT line: y variables:
Customer assigment to PL: u variables:
3 9
4 11
5 11
6 11
Node is served by regular vehicle: g variables:
1
2
11
9
Customer assigment to Home delivery: gm variables:
1
2
Customer's demand delivered to PL: l variables:
3
4
5
6
